(set-info :source |printed by MathSAT|)
(declare-fun |.x{1102}| () Int)
(declare-fun |.x{1156}| () Int)
(declare-fun |.x{1103}| () (Array Int Int))
(declare-fun |.x{1157}| () (Array Int Int))
(declare-fun |.x{1104}| () (Array Int Int))
(declare-fun |.x{1158}| () (Array Int Int))
(declare-fun |.x{1105}| () (Array Int (Array Int Int)))
(declare-fun |.x{1159}| () (Array Int (Array Int Int)))
(declare-fun |.x{1106}| () (Array Int (Array Int Int)))
(declare-fun |.x{1160}| () (Array Int (Array Int Int)))
(declare-fun |.x{1107}| () Int)
(declare-fun |.x{1161}| () Int)
(declare-fun |.x{1108}| () Int)
(declare-fun |.x{1162}| () Int)
(declare-fun |.x{1109}| () (Array Int Int))
(declare-fun |.x{1163}| () (Array Int Int))
(declare-fun |.x{1110}| () (Array Int Int))
(declare-fun |.x{1164}| () (Array Int Int))
(declare-fun |.x{1111}| () Int)
(declare-fun |.x{1165}| () Int)
(declare-fun |.x{1112}| () Int)
(declare-fun |.x{1166}| () Int)
(declare-fun |.x{1113}| () Int)
(declare-fun |.x{1167}| () Int)
(declare-fun |.x{1114}| () Int)
(declare-fun |.x{1168}| () Int)
(declare-fun |.x{1115}| () Int)
(declare-fun |.x{1169}| () Int)
(declare-fun |.x{1116}| () Int)
(declare-fun |.x{1170}| () Int)
(declare-fun |.x{1117}| () Int)
(declare-fun |.x{1171}| () Int)
(declare-fun |.x{1118}| () Int)
(declare-fun |.x{1172}| () Int)
(declare-fun |.x{1119}| () Int)
(declare-fun |.x{1173}| () Int)
(declare-fun |.x{1120}| () Int)
(declare-fun |.x{1174}| () Int)
(declare-fun |.x{1121}| () Int)
(declare-fun |.x{1175}| () Int)
(declare-fun |.x{1122}| () Int)
(declare-fun |.x{1176}| () Int)
(declare-fun |.x{1123}| () Int)
(declare-fun |.x{1177}| () Int)
(declare-fun |.x{1124}| () Int)
(declare-fun |.x{1178}| () Int)
(declare-fun |.x{1125}| () Int)
(declare-fun |.x{1179}| () Int)
(declare-fun |.x{1126}| () Int)
(declare-fun |.x{1180}| () Int)
(declare-fun |.x{1127}| () Int)
(declare-fun |.x{1181}| () Int)
(declare-fun |.x{1155}| () Bool)
(declare-fun |.x{1128}| () Bool)
(declare-fun |.loc{5}| () Bool)
(declare-fun |.loc{9}| () Bool)
(declare-fun |.loc{6}| () Bool)
(declare-fun |.loc{10}| () Bool)
(declare-fun |.loc{7}| () Bool)
(declare-fun |.loc{11}| () Bool)
(declare-fun |.loc{8}| () Bool)
(declare-fun |.loc{12}| () Bool)
(declare-fun |.x{107}| () (Array Int Int))
(define-fun .def_64 () Bool (! |.loc{6}| :next |.loc{10}|))
(define-fun .def_135 () Bool (not .def_64))
(define-fun .def_62 () Bool (! |.loc{5}| :next |.loc{9}|))
(define-fun .def_75 () Bool (not .def_62))
(define-fun .def_479 () Bool (and .def_75 .def_135))
(define-fun .def_66 () Bool (! |.loc{7}| :next |.loc{11}|))
(define-fun .def_70 () Bool (not .def_66))
(define-fun .def_480 () Bool (and .def_70 .def_479))
(define-fun .def_68 () Bool (! |.loc{8}| :next |.loc{12}|))
(define-fun .def_454 () Bool (not .def_68))
(define-fun .def_481 () Bool (and .def_454 .def_480))
(define-fun .def_28 () Int (! |.x{1112}| :next |.x{1166}|))
(define-fun .def_26 () Int (! |.x{1111}| :next |.x{1165}|))
(define-fun .def_473 () Bool (= .def_26 .def_28))
(define-fun .def_16 () (Array Int (Array Int Int)) (! |.x{1106}| :next |.x{1160}|))
(define-fun .def_14 () (Array Int (Array Int Int)) (! |.x{1105}| :next |.x{1159}|))
(define-fun .def_472 () Bool (= .def_14 .def_16))
(define-fun .def_474 () Bool (and .def_472 .def_473))
(define-fun .def_20 () Int (! |.x{1108}| :next |.x{1162}|))
(define-fun .def_18 () Int (! |.x{1107}| :next |.x{1161}|))
(define-fun .def_471 () Bool (= .def_18 .def_20))
(define-fun .def_475 () Bool (and .def_471 .def_474))
(define-fun .def_24 () (Array Int Int) (! |.x{1110}| :next |.x{1164}|))
(define-fun .def_22 () (Array Int Int) (! |.x{1109}| :next |.x{1163}|))
(define-fun .def_470 () Bool (= .def_22 .def_24))
(define-fun .def_476 () Bool (and .def_470 .def_475))
(define-fun .def_12 () (Array Int Int) (! |.x{1104}| :next |.x{1158}|))
(define-fun .def_10 () (Array Int Int) (! |.x{1103}| :next |.x{1157}|))
(define-fun .def_469 () Bool (= .def_10 .def_12))
(define-fun .def_477 () Bool (and .def_469 .def_476))
(define-fun .def_60 () Bool (! |.x{1155}| :next |.x{1128}|))
(define-fun .def_468 () Bool (not .def_60))
(define-fun .def_478 () Bool (and .def_468 .def_477))
(define-fun .def_482 () Bool (! (and .def_478 .def_481) :init true))
(define-fun .def_465 () Bool (= .def_24 |.x{1164}|))
(define-fun .def_463 () Bool (= .def_20 |.x{1162}|))
(define-fun .def_461 () Bool (= .def_16 |.x{1160}|))
(define-fun .def_459 () Bool (= .def_12 |.x{1158}|))
(define-fun .def_8 () Int (! |.x{1102}| :next |.x{1156}|))
(define-fun .def_457 () Bool (= .def_8 |.x{1156}|))
(define-fun .def_455 () Bool (= .def_28 |.x{1166}|))
(define-fun .def_456 () Bool (and .def_454 .def_455))
(define-fun .def_458 () Bool (and .def_456 .def_457))
(define-fun .def_460 () Bool (and .def_458 .def_459))
(define-fun .def_462 () Bool (and .def_460 .def_461))
(define-fun .def_464 () Bool (and .def_462 .def_463))
(define-fun .def_466 () Bool (and .def_464 .def_465))
(define-fun .def_451 () Bool (= .def_22 |.x{1163}|))
(define-fun .def_449 () Bool (= .def_18 |.x{1161}|))
(define-fun .def_447 () Bool (= .def_26 |.x{1165}|))
(define-fun .def_30 () Int (! |.x{1113}| :next |.x{1167}|))
(define-fun .def_137 () Bool (= .def_30 |.x{1167}|))
(define-fun .def_416 () Bool (and |.x{1128}| .def_137))
(define-fun .def_42 () Int (! |.x{1119}| :next |.x{1173}|))
(define-fun .def_73 () Bool (= .def_42 |.x{1173}|))
(define-fun .def_417 () Bool (and .def_73 .def_416))
(define-fun .def_418 () Bool (and .def_73 .def_417))
(define-fun .def_419 () Bool (and .def_75 .def_418))
(define-fun .def_44 () Int (! |.x{1120}| :next |.x{1174}|))
(define-fun .def_151 () Bool (= .def_44 |.x{1174}|))
(define-fun .def_420 () Bool (and .def_151 .def_419))
(define-fun .def_46 () Int (! |.x{1121}| :next |.x{1175}|))
(define-fun .def_153 () Bool (= .def_46 |.x{1175}|))
(define-fun .def_421 () Bool (and .def_153 .def_420))
(define-fun .def_50 () Int (! |.x{1123}| :next |.x{1177}|))
(define-fun .def_159 () Bool (= .def_50 |.x{1177}|))
(define-fun .def_422 () Bool (and .def_159 .def_421))
(define-fun .def_423 () Bool (and .def_159 .def_422))
(define-fun .def_54 () Int (! |.x{1125}| :next |.x{1179}|))
(define-fun .def_163 () Bool (= .def_54 |.x{1179}|))
(define-fun .def_424 () Bool (and .def_163 .def_423))
(define-fun .def_169 () Bool (= .def_10 |.x{1157}|))
(define-fun .def_425 () Bool (and .def_169 .def_424))
(define-fun .def_412 () Bool (= |.x{1173}| |.x{1175}|))
(define-fun .def_413 () Bool (or |.x{1128}| .def_412))
(define-fun .def_406 () (Array Int Int) (store .def_10 .def_44 0))
(define-fun .def_407 () (Array Int Int) (store .def_406 .def_50 0))
(define-fun .def_408 () Bool (= |.x{1157}| .def_407))
(define-fun .def_405 () Bool (= |.x{1175}| 0))
(define-fun .def_409 () Bool (and .def_405 .def_408))
(define-fun .def_410 () Bool (or .def_60 .def_409))
(define-fun .def_411 () Bool (and .def_62 .def_410))
(define-fun .def_414 () Bool (and .def_411 .def_413))
(define-fun .def_133 () Bool (= .def_60 |.x{1128}|))
(define-fun .def_415 () Bool (and .def_133 .def_414))
(define-fun .def_426 () Bool (or .def_415 .def_425))
(define-fun .def_402 () Bool (and .def_64 |.loc{12}|))
(define-fun .def_78 () Bool (not |.loc{10}|))
(define-fun .def_403 () Bool (and .def_78 .def_402))
(define-fun .def_82 () Bool (not |.loc{11}|))
(define-fun .def_404 () Bool (and .def_82 .def_403))
(define-fun .def_427 () Bool (and .def_404 .def_426))
(define-fun .def_32 () Int (! |.x{1114}| :next |.x{1168}|))
(define-fun .def_175 () Bool (= .def_32 0))
(define-fun .def_388 () Bool (or .def_60 .def_175))
(define-fun .def_389 () Bool (and .def_137 .def_388))
(define-fun .def_390 () Bool (and .def_62 .def_389))
(define-fun .def_391 () Bool (and .def_73 .def_390))
(define-fun .def_392 () Bool (and .def_151 .def_391))
(define-fun .def_393 () Bool (and .def_153 .def_392))
(define-fun .def_394 () Bool (and |.loc{10}| .def_393))
(define-fun .def_395 () Bool (and |.loc{11}| .def_394))
(define-fun .def_396 () Bool (and .def_159 .def_395))
(define-fun .def_397 () Bool (and .def_163 .def_396))
(define-fun .def_398 () Bool (and .def_169 .def_397))
(define-fun .def_131 () Bool (not |.loc{12}|))
(define-fun .def_399 () Bool (and .def_131 .def_398))
(define-fun .def_400 () Bool (and .def_133 .def_399))
(define-fun .def_401 () Bool (and .def_135 .def_400))
(define-fun .def_428 () Bool (or .def_401 .def_427))
(define-fun .def_257 () Bool (not |.loc{9}|))
(define-fun .def_71 () Bool (= .def_32 |.x{1168}|))
(define-fun .def_384 () Bool (and .def_71 .def_257))
(define-fun .def_52 () Int (! |.x{1124}| :next |.x{1178}|))
(define-fun .def_80 () Bool (= .def_52 |.x{1178}|))
(define-fun .def_385 () Bool (and .def_80 .def_384))
(define-fun .def_56 () Int (! |.x{1126}| :next |.x{1180}|))
(define-fun .def_165 () Bool (= .def_56 |.x{1180}|))
(define-fun .def_386 () Bool (and .def_165 .def_385))
(define-fun .def_58 () Int (! |.x{1127}| :next |.x{1181}|))
(define-fun .def_167 () Bool (= .def_58 |.x{1181}|))
(define-fun .def_387 () Bool (and .def_167 .def_386))
(define-fun .def_429 () Bool (and .def_387 .def_428))
(define-fun .def_40 () Int (! |.x{1118}| :next |.x{1172}|))
(define-fun .def_361 () Int (* 4 .def_40))
(define-fun .def_362 () Int (+ .def_30 .def_361))
(define-fun .def_219 () (Array Int Int) (select .def_14 .def_44))
(define-fun .def_363 () Int (select .def_219 .def_362))
(define-fun .def_364 () Bool (= |.x{1181}| .def_363))
(define-fun .def_358 () Bool (= |.x{1180}| |.x{1181}|))
(define-fun .def_359 () Int (ite .def_358 1 0))
(define-fun .def_360 () Bool (= |.x{1178}| .def_359))
(define-fun .def_365 () Bool (and .def_360 .def_364))
(define-fun .def_351 () Int (* (- 4) .def_40))
(define-fun .def_354 () Int (+ .def_351 .def_54))
(define-fun .def_355 () Int (+ .def_354 399996))
(define-fun .def_225 () (Array Int Int) (select .def_14 .def_50))
(define-fun .def_356 () Int (select .def_225 .def_355))
(define-fun .def_357 () Bool (= |.x{1180}| .def_356))
(define-fun .def_366 () Bool (and .def_357 .def_365))
(define-fun .def_279 () Bool (<= 100000 .def_40))
(define-fun .def_350 () Bool (not .def_279))
(define-fun .def_367 () Bool (and .def_350 .def_366))
(define-fun .def_349 () Bool (= |.x{1168}| |.x{1178}|))
(define-fun .def_368 () Bool (and .def_349 .def_367))
(define-fun .def_369 () Bool (or .def_60 .def_368))
(define-fun .def_370 () Bool (and .def_137 .def_369))
(define-fun .def_371 () Bool (and .def_73 .def_370))
(define-fun .def_372 () Bool (and .def_75 .def_371))
(define-fun .def_373 () Bool (and .def_151 .def_372))
(define-fun .def_374 () Bool (and .def_153 .def_373))
(define-fun .def_375 () Bool (and |.loc{9}| .def_374))
(define-fun .def_376 () Bool (and |.loc{11}| .def_375))
(define-fun .def_377 () Bool (and .def_159 .def_376))
(define-fun .def_378 () Bool (and .def_78 .def_377))
(define-fun .def_379 () Bool (and .def_163 .def_378))
(define-fun .def_380 () Bool (and .def_169 .def_379))
(define-fun .def_381 () Bool (and .def_131 .def_380))
(define-fun .def_382 () Bool (and .def_133 .def_381))
(define-fun .def_383 () Bool (and .def_135 .def_382))
(define-fun .def_430 () Bool (or .def_383 .def_429))
(define-fun .def_34 () Int (! |.x{1115}| :next |.x{1169}|))
(define-fun .def_139 () Bool (= .def_34 |.x{1169}|))
(define-fun .def_431 () Bool (and .def_139 .def_430))
(define-fun .def_145 () Bool (= .def_40 |.x{1172}|))
(define-fun .def_432 () Bool (and .def_145 .def_431))
(define-fun .def_433 () Bool (and .def_66 .def_432))
(define-fun .def_330 () Int (* (- 1) |.x{1172}|))
(define-fun .def_331 () Int (+ .def_40 .def_330))
(define-fun .def_332 () Bool (= .def_331 (- 1)))
(define-fun .def_333 () Bool (or |.x{1128}| .def_332))
(define-fun .def_138 () Bool (and .def_71 .def_137))
(define-fun .def_329 () Bool (and .def_70 .def_138))
(define-fun .def_334 () Bool (and .def_329 .def_333))
(define-fun .def_335 () Bool (and .def_62 .def_334))
(define-fun .def_336 () Bool (and .def_64 .def_335))
(define-fun .def_337 () Bool (and .def_73 .def_336))
(define-fun .def_338 () Bool (and .def_151 .def_337))
(define-fun .def_339 () Bool (and .def_153 .def_338))
(define-fun .def_340 () Bool (and |.loc{11}| .def_339))
(define-fun .def_341 () Bool (and .def_159 .def_340))
(define-fun .def_342 () Bool (and .def_257 .def_341))
(define-fun .def_343 () Bool (and .def_78 .def_342))
(define-fun .def_344 () Bool (and .def_80 .def_343))
(define-fun .def_345 () Bool (and .def_163 .def_344))
(define-fun .def_346 () Bool (and .def_169 .def_345))
(define-fun .def_347 () Bool (and .def_131 .def_346))
(define-fun .def_348 () Bool (and .def_133 .def_347))
(define-fun .def_434 () Bool (or .def_348 .def_433))
(define-fun .def_308 () Bool (= |.x{1172}| 0))
(define-fun .def_309 () Bool (or .def_60 .def_308))
(define-fun .def_310 () Bool (and .def_138 .def_309))
(define-fun .def_311 () Bool (and .def_139 .def_310))
(define-fun .def_312 () Bool (and .def_70 .def_311))
(define-fun .def_313 () Bool (and .def_64 .def_312))
(define-fun .def_314 () Bool (and .def_73 .def_313))
(define-fun .def_315 () Bool (and .def_75 .def_314))
(define-fun .def_316 () Bool (and .def_151 .def_315))
(define-fun .def_317 () Bool (and .def_153 .def_316))
(define-fun .def_318 () Bool (and |.loc{11}| .def_317))
(define-fun .def_319 () Bool (and .def_159 .def_318))
(define-fun .def_320 () Bool (and .def_257 .def_319))
(define-fun .def_321 () Bool (and .def_78 .def_320))
(define-fun .def_322 () Bool (and .def_80 .def_321))
(define-fun .def_323 () Bool (and .def_163 .def_322))
(define-fun .def_324 () Bool (and .def_165 .def_323))
(define-fun .def_325 () Bool (and .def_167 .def_324))
(define-fun .def_326 () Bool (and .def_169 .def_325))
(define-fun .def_327 () Bool (and .def_131 .def_326))
(define-fun .def_328 () Bool (and .def_133 .def_327))
(define-fun .def_435 () Bool (or .def_328 .def_434))
(define-fun .def_140 () Bool (and .def_138 .def_139))
(define-fun .def_281 () Bool (and .def_140 .def_145))
(define-fun .def_282 () Bool (and .def_66 .def_281))
(define-fun .def_283 () Bool (and .def_73 .def_282))
(define-fun .def_284 () Bool (and .def_75 .def_283))
(define-fun .def_285 () Bool (and .def_151 .def_284))
(define-fun .def_286 () Bool (and .def_153 .def_285))
(define-fun .def_287 () Bool (and |.loc{9}| .def_286))
(define-fun .def_288 () Bool (and |.loc{10}| .def_287))
(define-fun .def_289 () Bool (and |.loc{11}| .def_288))
(define-fun .def_290 () Bool (and .def_159 .def_289))
(define-fun .def_291 () Bool (and .def_80 .def_290))
(define-fun .def_300 () Bool (and .def_163 .def_291))
(define-fun .def_301 () Bool (and .def_165 .def_300))
(define-fun .def_302 () Bool (and .def_167 .def_301))
(define-fun .def_303 () Bool (and .def_169 .def_302))
(define-fun .def_304 () Bool (and .def_60 .def_303))
(define-fun .def_305 () Bool (and .def_131 .def_304))
(define-fun .def_306 () Bool (and .def_133 .def_305))
(define-fun .def_307 () Bool (and .def_135 .def_306))
(define-fun .def_436 () Bool (or .def_307 .def_435))
(define-fun .def_280 () Bool (or .def_60 .def_279))
(define-fun .def_292 () Bool (and .def_280 .def_291))
(define-fun .def_293 () Bool (and .def_163 .def_292))
(define-fun .def_294 () Bool (and .def_165 .def_293))
(define-fun .def_295 () Bool (and .def_167 .def_294))
(define-fun .def_296 () Bool (and .def_169 .def_295))
(define-fun .def_297 () Bool (and .def_131 .def_296))
(define-fun .def_298 () Bool (and .def_133 .def_297))
(define-fun .def_299 () Bool (and .def_135 .def_298))
(define-fun .def_437 () Bool (or .def_299 .def_436))
(define-fun .def_248 () Bool (and .def_70 .def_140))
(define-fun .def_249 () Bool (and .def_145 .def_248))
(define-fun .def_250 () Bool (and .def_62 .def_249))
(define-fun .def_251 () Bool (and .def_73 .def_250))
(define-fun .def_252 () Bool (and .def_151 .def_251))
(define-fun .def_253 () Bool (and .def_153 .def_252))
(define-fun .def_254 () Bool (and |.loc{10}| .def_253))
(define-fun .def_255 () Bool (and .def_159 .def_254))
(define-fun .def_268 () Bool (and .def_255 .def_257))
(define-fun .def_269 () Bool (and .def_80 .def_268))
(define-fun .def_270 () Bool (and .def_82 .def_269))
(define-fun .def_271 () Bool (and .def_163 .def_270))
(define-fun .def_272 () Bool (and .def_165 .def_271))
(define-fun .def_273 () Bool (and .def_167 .def_272))
(define-fun .def_274 () Bool (and .def_169 .def_273))
(define-fun .def_275 () Bool (and .def_60 .def_274))
(define-fun .def_276 () Bool (and .def_131 .def_275))
(define-fun .def_277 () Bool (and .def_133 .def_276))
(define-fun .def_278 () Bool (and .def_135 .def_277))
(define-fun .def_438 () Bool (or .def_278 .def_437))
(define-fun .def_36 () Int (! |.x{1116}| :next |.x{1170}|))
(define-fun .def_212 () Bool (<= 100000 .def_36))
(define-fun .def_247 () Bool (or .def_60 .def_212))
(define-fun .def_256 () Bool (and .def_247 .def_255))
(define-fun .def_258 () Bool (and .def_256 .def_257))
(define-fun .def_259 () Bool (and .def_80 .def_258))
(define-fun .def_260 () Bool (and .def_82 .def_259))
(define-fun .def_261 () Bool (and .def_163 .def_260))
(define-fun .def_262 () Bool (and .def_165 .def_261))
(define-fun .def_263 () Bool (and .def_167 .def_262))
(define-fun .def_264 () Bool (and .def_169 .def_263))
(define-fun .def_265 () Bool (and .def_131 .def_264))
(define-fun .def_266 () Bool (and .def_133 .def_265))
(define-fun .def_267 () Bool (and .def_135 .def_266))
(define-fun .def_439 () Bool (or .def_267 .def_438))
(define-fun .def_141 () Bool (= .def_36 |.x{1170}|))
(define-fun .def_440 () Bool (and .def_141 .def_439))
(define-fun .def_38 () Int (! |.x{1117}| :next |.x{1171}|))
(define-fun .def_143 () Bool (= .def_38 |.x{1171}|))
(define-fun .def_441 () Bool (and .def_143 .def_440))
(define-fun .def_48 () Int (! |.x{1122}| :next |.x{1176}|))
(define-fun .def_156 () Bool (= .def_48 |.x{1176}|))
(define-fun .def_442 () Bool (and .def_156 .def_441))
(define-fun .def_84 () Bool (= .def_14 |.x{1159}|))
(define-fun .def_443 () Bool (and .def_84 .def_442))
(define-fun .def_216 () Int (* (- 4) .def_36))
(define-fun .def_217 () Int (+ .def_30 .def_216))
(define-fun .def_220 () Int (+ .def_217 399996))
(define-fun .def_221 () Int (select .def_219 .def_220))
(define-fun .def_223 () Int (* 4 .def_36))
(define-fun .def_226 () Int (+ .def_223 .def_54))
(define-fun .def_227 () (Array Int Int) (store .def_225 .def_226 .def_221))
(define-fun .def_228 () (Array Int (Array Int Int)) (store .def_14 .def_50 .def_227))
(define-fun .def_229 () Bool (= |.x{1159}| .def_228))
(define-fun .def_213 () Bool (not .def_212))
(define-fun .def_230 () Bool (and .def_213 .def_229))
(define-fun .def_231 () Bool (or .def_60 .def_230))
(define-fun .def_201 () Int (* (- 1) |.x{1170}|))
(define-fun .def_202 () Int (+ .def_36 .def_201))
(define-fun .def_203 () Bool (= .def_202 (- 1)))
(define-fun .def_204 () Bool (or |.x{1128}| .def_203))
(define-fun .def_205 () Bool (and .def_138 .def_204))
(define-fun .def_206 () Bool (and .def_139 .def_205))
(define-fun .def_207 () Bool (and .def_70 .def_206))
(define-fun .def_208 () Bool (and .def_145 .def_207))
(define-fun .def_209 () Bool (and .def_62 .def_208))
(define-fun .def_210 () Bool (and .def_73 .def_209))
(define-fun .def_232 () Bool (and .def_210 .def_231))
(define-fun .def_233 () Bool (and .def_151 .def_232))
(define-fun .def_234 () Bool (and .def_153 .def_233))
(define-fun .def_235 () Bool (and |.loc{9}| .def_234))
(define-fun .def_236 () Bool (and .def_159 .def_235))
(define-fun .def_237 () Bool (and .def_78 .def_236))
(define-fun .def_238 () Bool (and .def_80 .def_237))
(define-fun .def_239 () Bool (and .def_82 .def_238))
(define-fun .def_240 () Bool (and .def_163 .def_239))
(define-fun .def_241 () Bool (and .def_165 .def_240))
(define-fun .def_242 () Bool (and .def_167 .def_241))
(define-fun .def_243 () Bool (and .def_169 .def_242))
(define-fun .def_244 () Bool (and .def_131 .def_243))
(define-fun .def_245 () Bool (and .def_133 .def_244))
(define-fun .def_246 () Bool (and .def_135 .def_245))
(define-fun .def_444 () Bool (or .def_246 .def_443))
(define-fun .def_176 () Bool (not .def_175))
(define-fun .def_177 () Bool (or .def_60 .def_176))
(define-fun .def_142 () Bool (and .def_140 .def_141))
(define-fun .def_178 () Bool (and .def_142 .def_177))
(define-fun .def_179 () Bool (and .def_143 .def_178))
(define-fun .def_180 () Bool (and .def_145 .def_179))
(define-fun .def_181 () Bool (and .def_62 .def_180))
(define-fun .def_182 () Bool (and .def_66 .def_181))
(define-fun .def_183 () Bool (and .def_73 .def_182))
(define-fun .def_184 () Bool (and .def_151 .def_183))
(define-fun .def_185 () Bool (and .def_153 .def_184))
(define-fun .def_186 () Bool (and |.loc{9}| .def_185))
(define-fun .def_187 () Bool (and .def_156 .def_186))
(define-fun .def_188 () Bool (and |.loc{10}| .def_187))
(define-fun .def_189 () Bool (and .def_159 .def_188))
(define-fun .def_190 () Bool (and .def_80 .def_189))
(define-fun .def_191 () Bool (and .def_82 .def_190))
(define-fun .def_192 () Bool (and .def_163 .def_191))
(define-fun .def_193 () Bool (and .def_165 .def_192))
(define-fun .def_194 () Bool (and .def_167 .def_193))
(define-fun .def_195 () Bool (and .def_169 .def_194))
(define-fun .def_196 () Bool (and .def_84 .def_195))
(define-fun .def_197 () Bool (and .def_131 .def_196))
(define-fun .def_198 () Bool (and .def_133 .def_197))
(define-fun .def_199 () Bool (and .def_135 .def_198))
(define-fun .def_445 () Bool (or .def_199 .def_444))
(define-fun .def_144 () Bool (and .def_142 .def_143))
(define-fun .def_146 () Bool (and .def_144 .def_145))
(define-fun .def_147 () Bool (and .def_64 .def_146))
(define-fun .def_148 () Bool (and .def_66 .def_147))
(define-fun .def_149 () Bool (and .def_73 .def_148))
(define-fun .def_150 () Bool (and .def_75 .def_149))
(define-fun .def_152 () Bool (and .def_150 .def_151))
(define-fun .def_154 () Bool (and .def_152 .def_153))
(define-fun .def_155 () Bool (and |.loc{9}| .def_154))
(define-fun .def_157 () Bool (and .def_155 .def_156))
(define-fun .def_158 () Bool (and |.loc{10}| .def_157))
(define-fun .def_160 () Bool (and .def_158 .def_159))
(define-fun .def_161 () Bool (and .def_80 .def_160))
(define-fun .def_162 () Bool (and .def_82 .def_161))
(define-fun .def_164 () Bool (and .def_162 .def_163))
(define-fun .def_166 () Bool (and .def_164 .def_165))
(define-fun .def_168 () Bool (and .def_166 .def_167))
(define-fun .def_170 () Bool (and .def_168 .def_169))
(define-fun .def_171 () Bool (and .def_84 .def_170))
(define-fun .def_172 () Bool (and .def_60 .def_171))
(define-fun .def_173 () Bool (and .def_131 .def_172))
(define-fun .def_174 () Bool (and .def_133 .def_173))
(define-fun .def_446 () Bool (or .def_174 .def_445))
(define-fun .def_448 () Bool (and .def_446 .def_447))
(define-fun .def_450 () Bool (and .def_448 .def_449))
(define-fun .def_452 () Bool (and .def_450 .def_451))
(define-fun .def_126 () Bool (= |.x{1165}| 0))
(define-fun .def_125 () Bool (= |.x{1161}| 0))
(define-fun .def_127 () Bool (and .def_125 .def_126))
(define-fun .def_123 () (Array Int Int) (store .def_10 0 0))
(define-fun .def_124 () Bool (= |.x{107}| .def_123))
(define-fun .def_128 () Bool (and .def_124 .def_127))
(define-fun .def_129 () Bool (or .def_60 .def_128))
(define-fun .def_117 () Bool (<= |.x{1156}| |.x{1177}|))
(define-fun .def_118 () Bool (not .def_117))
(define-fun .def_114 () Bool (<= |.x{1156}| |.x{1174}|))
(define-fun .def_115 () Bool (not .def_114))
(define-fun .def_105 () (Array Int Int) (store .def_22 |.x{1174}| 400000))
(define-fun .def_106 () (Array Int Int) (store .def_105 |.x{1177}| 400000))
(define-fun .def_107 () Bool (= |.x{1163}| .def_106))
(define-fun .def_96 () (Array Int Int) (store |.x{107}| |.x{1174}| 1))
(define-fun .def_101 () Int (select .def_96 |.x{1177}|))
(define-fun .def_102 () Bool (= .def_101 0))
(define-fun .def_99 () Bool (= |.x{1177}| 0))
(define-fun .def_100 () Bool (not .def_99))
(define-fun .def_103 () Bool (and .def_100 .def_102))
(define-fun .def_108 () Bool (and .def_103 .def_107))
(define-fun .def_97 () (Array Int Int) (store .def_96 |.x{1177}| 1))
(define-fun .def_98 () Bool (= |.x{1157}| .def_97))
(define-fun .def_109 () Bool (and .def_98 .def_108))
(define-fun .def_93 () Bool (= |.x{1174}| 0))
(define-fun .def_94 () Bool (not .def_93))
(define-fun .def_110 () Bool (and .def_94 .def_109))
(define-fun .def_92 () Bool (= |.x{1170}| 0))
(define-fun .def_111 () Bool (and .def_92 .def_110))
(define-fun .def_91 () Bool (= |.x{1179}| 0))
(define-fun .def_112 () Bool (and .def_91 .def_111))
(define-fun .def_90 () Bool (= |.x{1167}| 0))
(define-fun .def_113 () Bool (and .def_90 .def_112))
(define-fun .def_116 () Bool (and .def_113 .def_115))
(define-fun .def_119 () Bool (and .def_116 .def_118))
(define-fun .def_88 () Int (select |.x{107}| |.x{1174}|))
(define-fun .def_89 () Bool (= .def_88 0))
(define-fun .def_120 () Bool (and .def_89 .def_119))
(define-fun .def_121 () Bool (or |.x{1128}| .def_120))
(define-fun .def_72 () Bool (and .def_70 .def_71))
(define-fun .def_74 () Bool (and .def_72 .def_73))
(define-fun .def_76 () Bool (and .def_74 .def_75))
(define-fun .def_77 () Bool (and |.loc{9}| .def_76))
(define-fun .def_79 () Bool (and .def_77 .def_78))
(define-fun .def_81 () Bool (and .def_79 .def_80))
(define-fun .def_83 () Bool (and .def_81 .def_82))
(define-fun .def_85 () Bool (and .def_83 .def_84))
(define-fun .def_122 () Bool (and .def_85 .def_121))
(define-fun .def_130 () Bool (and .def_122 .def_129))
(define-fun .def_132 () Bool (and .def_130 .def_131))
(define-fun .def_134 () Bool (and .def_132 .def_133))
(define-fun .def_136 () Bool (and .def_134 .def_135))
(define-fun .def_453 () Bool (or .def_136 .def_452))
(define-fun .def_467 () Bool (! (and .def_453 .def_466) :trans true))
(define-fun .def_483 () Bool (and .def_68 .def_480))
(define-fun .def_484 () Bool (and .def_60 .def_483))
(define-fun .def_485 () Bool (! (not .def_484) :invar-property 0))
(assert true)
